Solving original (integer) problem with strategy gdp.bigm...
--- Job model.gms Start 02/14/26 17:16:01 52.2.0 d8e408be LEX-LEG x86 64bit/Linux
--- Applying:
    /package/gams/52.2/gmsprmun.txt
--- GAMS Parameters defined
    Input /local/scratch/a/sgusev/repos/k_means/data/gams_gurobi_gdp.bigm/no_mode/2026-02-14_17-16-01/original/model.gms
    Output /local/scratch/a/sgusev/repos/k_means/data/gams_gurobi_gdp.bigm/no_mode/2026-02-14_17-16-01/original/output.lst
    ScrDir /local/scratch/a/sgusev/repos/k_means/data/gams_gurobi_gdp.bigm/no_mode/2026-02-14_17-16-01/original/225a/
    SysDir /package/gams/52.2/
    CurDir /local/scratch/a/sgusev/repos/k_means/data/gams_gurobi_gdp.bigm/no_mode/2026-02-14_17-16-01/original/
    LogOption 3
    AppendLog 1
Licensee: David Bernal / SECQUOIA Research Group         G251008+0003Ac-GEN
          Purdue University, Davidson School of Chemical EngineeringDCE4838
          225a/gamslice.dat
          5a82958a-fbca-4a23
          node:66820903 mem:995 cores:48 ipport:37721 v:2                  
          Evaluation license: Not for commercial or production use
          The time-limited license stops working on : Jun 30, 2027
System information: 48 physical cores and 995 Gb physical memory detected
GAMS 52.2.0   Copyright (C) 1987-2025 GAMS Development. All rights reserved
--- Starting compilation
--- model.gms(237) 2 Mb
--- $echo File /local/scratch/a/sgusev/repos/k_means/data/gams_gurobi_gdp.bigm/no_mode/2026-02-14_17-16-01/original/gurobi.opt
--- model.gms(426) 2 Mb
--- Starting execution: elapsed 0:00:00.006
--- model.gms(246) 3 Mb
--- Generating MINLP model GAMS_MODEL
--- model.gms(250) 5 Mb
---   59 rows  64 columns  238 non-zeroes
---   396 nl-code  88 nl-non-zeroes
---   44 discrete-columns
--- Range statistics (absolute non-zero finite values)
--- RHS       [min, max] : [ 1.000E+00, 6.846E+00] - Zero values observed as well
--- Bound     [min, max] : [ 1.000E+00, 4.400E+01] - Zero values observed as well
--- Matrix    [min, max] : [ 3.530E-02, 6.846E+00]
--- model.gms(250) 3 Mb
--- Executing GUROBI (Solvelink=5): elapsed 0:00:00.009
Reading parameter(s) from "/local/scratch/a/sgusev/repos/k_means/data/gams_gurobi_gdp.bigm/no_mode/2026-02-14_17-16-01/original/gurobi.opt"
>>  NonConvex 2
>>  Threads 1
>>  MIPGap 1e-06
>>  MIPGapAbs 1e-10
>>  FeasibilityTol 1e-06
>>  OptimalityTol 1e-06
>>  IntFeasTol 1e-05
Finished reading from "/local/scratch/a/sgusev/repos/k_means/data/gams_gurobi_gdp.bigm/no_mode/2026-02-14_17-16-01/original/gurobi.opt"

... GRB_LICENSE_FILE = /local/scratch/a/sgusev/gurobi.lic

    Gurobi           52.2.0 d8e408be Dec 8, 2025           LEG x86 64bit/Linux    

... GAMS/Gurobi Link license.
... GMO Q Extraction (ThreePass): 0.00s

    Gurobi Optimizer version 13.0.0 build v13.0.0rc1 (linux64 - "Oracle Linux Server 9.7")
    
    CPU model: AMD EPYC 7643 48-Core Processor, instruction set [SSE2|AVX|AVX2]
    Thread count: 48 physical cores, 96 logical processors, using up to 1 threads
    
    Non-default parameters:
    TimeLimit  300
    MIPGap  1e-06
    LogToConsole  0
    NonConvex  2
    Threads  1
    
    Optimize a model with 14 rows, 63 columns and 50 nonzeros (Min)
    Model fingerprint: 0xe97153f9
    Model has 11 linear objective coefficients
    Model has 44 quadratic constraints
    Variable types: 19 continuous, 44 integer (0 binary)
    Coefficient statistics:
      Matrix range     [1e+00, 1e+00]
      QMatrix range    [1e+00, 1e+00]
      QLMatrix range   [4e-02, 7e+00]
      Objective range  [1e+00, 1e+00]
      Bounds range     [1e+00, 4e+01]
      RHS range        [1e+00, 1e+00]
      QRHS range       [3e+00, 5e+00]
    Presolve added 44 rows and 4 columns
    Presolve time: 0.00s
    Presolved: 58 rows, 67 columns, 270 nonzeros
    Presolved model has 4 quadratic constraint(s)
    Variable types: 23 continuous, 44 integer (44 binary)
    
    Root relaxation: objective 0.000000e+00, 23 iterations, 0.00 seconds (0.00 work units)
    
        Nodes    |    Current Node    |     Objective Bounds      |     Work
     Expl Unexpl |  Obj  Depth IntInf | Incumbent    BestBd   Gap | It/Node Time
    
    H    0     0                       3.1962345    0.00000   100%     -    0s
    *    0     0               0       3.1962345    0.00000   100%     -    0s
         0     0    0.00000    0   11    3.19623    0.00000   100%     -    0s
         0     0    0.00000    0   12    3.19623    0.00000   100%     -    0s
    H    0     0                       1.9394655    0.00000   100%     -    0s
         0     0    0.00000    0   20    1.93947    0.00000   100%     -    0s
         0     0    0.00000    0   16    1.93947    0.00000   100%     -    0s
         0     0    0.00000    0    -    1.93947    0.00000   100%     -    0s
         0     0    0.00000    0   10    1.93947    0.00000   100%     -    0s
         0     0    0.00000    0   14    1.93947    0.00000   100%     -    0s
         0     0    0.00000    0   16    1.93947    0.00000   100%     -    0s
         0     0    0.00000    0   16    1.93947    0.00000   100%     -    0s
         0     0    0.00000    0   16    1.93947    0.00000   100%     -    0s
         0     0    0.00000    0   14    1.93947    0.00000   100%     -    0s
         0     0    0.00000    0   14    1.93947    0.00000   100%     -    0s
         0     0    0.00000    0   14    1.93947    0.00000   100%     -    0s
         0     0    0.00000    0   21    1.93947    0.00000   100%     -    0s
         0     0    0.00000    0   21    1.93947    0.00000   100%     -    0s
         0     0    0.00000    0   18    1.93947    0.00000   100%     -    0s
         0     0    0.00000    0   14    1.93947    0.00000   100%     -    0s
         0     0    0.00000    0   20    1.93947    0.00000   100%     -    0s
         0     0    0.00000    0   18    1.93947    0.00000   100%     -    0s
         0     0    0.00000    0   22    1.93947    0.00000   100%     -    0s
         0     0    0.00000    0   20    1.93947    0.00000   100%     -    0s
         0     0    0.00000    0   18    1.93947    0.00000   100%     -    0s
         0     0    0.00000    0   18    1.93947    0.00000   100%     -    0s
         0     0    0.00000    0   20    1.93947    0.00000   100%     -    0s
         0     0    0.00000    0   20    1.93947    0.00000   100%     -    0s
         0     0    0.00000    0   22    1.93947    0.00000   100%     -    0s
         0     0    0.00000    0   18    1.93947    0.00000   100%     -    0s
         0     0    0.00000    0   18    1.93947    0.00000   100%     -    0s
         0     0    0.00000    0   18    1.93947    0.00000   100%     -    0s
         0     0    0.00000    0   20    1.93947    0.00000   100%     -    0s
         0     0    0.00000    0   12    1.93947    0.00000   100%     -    0s
         0     0    0.00000    0   18    1.93947    0.00000   100%     -    0s
         0     0    0.00000    0   12    1.93947    0.00000   100%     -    0s
         0     0    0.00000    0   20    1.93947    0.00000   100%     -    0s
         0     0    0.00000    0   18    1.93947    0.00000   100%     -    0s
         0     0    0.00000    0   20    1.93947    0.00000   100%     -    0s
         0     0    0.00000    0   16    1.93947    0.00000   100%     -    0s
         0     0    0.00000    0   18    1.93947    0.00000   100%     -    0s
         0     0    0.00000    0   18    1.93947    0.00000   100%     -    0s
         0     0    0.00000    0   22    1.93947    0.00000   100%     -    0s
         0     0    0.00000    0   20    1.93947    0.00000   100%     -    0s
         0     0    0.00000    0   18    1.93947    0.00000   100%     -    0s
         0     0    0.00000    0   18    1.93947    0.00000   100%     -    0s
         0     0    0.00000    0   22    1.93947    0.00000   100%     -    0s
         0     0    0.00000    0    8    1.93947    0.00000   100%     -    0s
         0     0    0.00000    0    8    1.93947    0.00000   100%     -    0s
         0     0    0.00000    0   14    1.93947    0.00000   100%     -    0s
         0     0    0.00000    0   14    1.93947    0.00000   100%     -    0s
         0     0    0.00000    0   14    1.93947    0.00000   100%     -    0s
         0     0    0.00000    0   14    1.93947    0.00000   100%     -    0s
         0     0    0.00000    0   16    1.93947    0.00000   100%     -    0s
         0     0    0.00000    0   16    1.93947    0.00000   100%     -    0s
         0     0    0.00000    0   16    1.93947    0.00000   100%     -    0s
         0     0    0.00000    0   16    1.93947    0.00000   100%     -    0s
         0     2    0.00000    0   16    1.93947    0.00000   100%     -    0s
    H    8     8                       1.2700060    0.00000   100%   5.5    0s
    H   53    35                       1.2700060    0.00000   100%   7.9    0s
    H  158    69                       1.2700060    0.00000   100%   6.8    0s
    H  262   111                       1.2700060    0.00000   100%   7.4    0s
    H  314   126                       1.2482757    0.00000   100%   7.2    0s
    H  402   135                       0.9703203    0.00000   100%   7.5    0s
    H  406   117                       0.7209155    0.00000   100%   7.5    0s
    H  418   118                       0.7209155    0.00000   100%   7.5    0s
    H  458   128                       0.7209155    0.00000   100%   7.4    0s
    H  466   127                       0.7209155    0.00000   100%   7.3    0s
    H  496   139                       0.7209155    0.00000   100%  16.4    0s
    H  832    55                       0.7208577    0.02917  96.0%  14.8    0s
    
    Cutting planes:
      Flow cover: 7
    
    Explored 986 nodes (15305 simplex iterations) in 0.66 seconds (0.49 work units)
    Thread count was 1 (of 96 available processors)
    
    Solution count 7: 0.720858 0.720915 0.97032 ... 3.19623
    
    Optimal solution found (tolerance 1.00e-06)
    Best objective 7.208576976932e-01, best bound 7.208576976932e-01, gap 0.0000%
    
    User-callback calls 1026, time in user-callback 0.00 sec

... Solving fixed model...

    Gurobi Optimizer version 13.0.0 build v13.0.0rc1 (linux64 - "Oracle Linux Server 9.7")
    
    CPU model: AMD EPYC 7643 48-Core Processor, instruction set [SSE2|AVX|AVX2]
    Thread count: 48 physical cores, 96 logical processors, using up to 1 threads
    
    Non-default parameters:
    TimeLimit  300
    MIPGap  1e-06
    LogToConsole  0
    NonConvex  2
    Threads  1
    
    Optimize a model with 14 rows, 63 columns and 50 nonzeros (Min)
    Model fingerprint: 0xeab96e8a
    Model has 11 linear objective coefficients
    Model has 44 quadratic constraints
    Coefficient statistics:
      Matrix range     [1e+00, 1e+00]
      QMatrix range    [1e+00, 1e+00]
      QLMatrix range   [4e-02, 7e+00]
      Objective range  [1e+00, 1e+00]
      Bounds range     [1e+00, 4e+01]
      RHS range        [1e+00, 1e+00]
      QRHS range       [3e+00, 5e+00]
    Presolve removed 11 rows and 44 columns
    Presolve time: 0.00s
    Presolved: 44 rows, 55 columns, 105 nonzeros
    Presolved model has 11 second-order cone constraints
    Ordering time: 0.00s
    
    Barrier statistics:
     AA' NZ     : 2.160e+02
     Factor NZ  : 3.220e+02
     Factor Ops : 3.090e+03 (less than 1 second per iteration)
     Threads    : 1
    
                      Objective                Residual
    Iter       Primal          Dual         Primal    Dual     Compl     Time
       0   4.56126474e+02 -2.15603615e+02  1.66e+01 3.09e+00  1.57e+01     0s
       1   5.56629397e+01 -6.50076752e+01  1.82e-05 3.40e-06  1.49e+00     0s
       2   2.20059904e+00 -3.34029295e+00  3.61e-07 1.40e-07  6.84e-02     0s
       3   1.53806360e+00 -7.68393727e-01  3.87e-10 3.52e-08  2.85e-02     0s
       4   9.04688132e-01  4.34204686e-01  5.39e-11 3.08e-09  5.81e-03     0s
       5   7.36597203e-01  6.95345373e-01  6.17e-12 1.43e-10  5.09e-04     0s
       6   7.25534356e-01  7.16902331e-01  2.10e-12 1.55e-11  1.07e-04     0s
       7   7.21092163e-01  7.20533345e-01  8.46e-12 1.03e-13  6.90e-06     0s
       8   7.20899993e-01  7.20841173e-01  3.83e-11 1.09e-13  7.26e-07     0s
       9   7.20860643e-01  7.20854469e-01  2.74e-10 3.91e-13  7.62e-08     0s
      10   7.20858250e-01  7.20857197e-01  1.50e-09 1.65e-12  1.30e-08     0s
    
    Barrier solved model in 10 iterations and 0.00 seconds (0.00 work units)
    Optimal objective 7.20858250e-01
    
    
    User-callback calls 0, time in user-callback 0.00 sec
    Warning: to get QCP duals, please set parameter QCPDual to 1

--- Reading solution for model GAMS_MODEL
***
*** Solver did not provide marginals for model GAMS_MODEL
***
--- Executing after solve: elapsed 0:00:00.732
--- model.gms(253) 3 Mb
--- model.gms(426) 5 Mb
--- Putfile results /local/scratch/a/sgusev/repos/k_means/data/gams_gurobi_gdp.bigm/no_mode/2026-02-14_17-16-01/original/results.dat
--- Putfile statresults /local/scratch/a/sgusev/repos/k_means/data/gams_gurobi_gdp.bigm/no_mode/2026-02-14_17-16-01/original/resultsstat.dat
*** Status: Normal completion
--- Job model.gms Stop 02/14/26 17:16:02 elapsed 0:00:00.732
Original problem solved. Time taken: 1.302238941192627 seconds
Original objective value: 0.720858249674224
